\ Model S-OCT Benders
\ LP format - for model browsing. Use MPS format to capture full model detail.
Maximize
  C564 + C565 + C566 + C567 + C568 + C569 + C570 + C571 + C572 + C573 + C574
   + C575 + C576 + C577 + C578 + C579 + C580 + C581 + C582 + C583 + C584
   + C585 + C586 + C587 + C588 + C589 + C590 + C591 + C592 + C593 + C594
   + C595 + C596 + C597 + C598 + C599 + C600 + C601 + C602 + C603 + C604
   + C605 + C606 + C607 + C608 + C609 + C610 + C611 + C612 + C613 + C614
   + C615 + C616 + C617 + C618 + C619 + C620 + C621 + C622 + C623 + C624
   + C625 + C626 + C627 + C628 + C629 + C630 + C631 + C632 + C633 + C634
   + C635 + C636 + C637 + C638 + C639 + C640 + C641 + C642 + C643 + C644
   + C645 + C646 + C647 + C648 + C649 + C650 + C651 + C652 + C653 + C654
   + C655 + C656 + C657 + C658 + C659 + C660 + C661 + C662 + C663 + C664
   + C665 + C666 + C667 + C668 + C669 + C670 + C671 + C672 + C673 + C674
   + C675 + C676 + C677 + C678 + C679 + C680 + C681 + C682 + C683 + C684
   + C685 + C686 + C687 + C688 + C689 + C690 + C691 + C692 + C693 + C694
   + C695 + C696 + C697 + C698 + C699 + C700 + C701 + C702 + C703 + C704
   + C705 + C706 + C707 + C708 + C709 + C710 + C711 + C712 + C713 + C714
   + C715 + C716 + C717 + C718 + C719 + C720 + C721 + C722 + C723 + C724
   + C725 + C726 + C727 + C728 + C729 + C730 + C731 + C732 + C733 + C734
   + C735 + C736 + C737 + C738 + C739 + C740 + C741 + C742 + C743 + C744
   + C745 + C746 + C747 + C748 + C749 + C750 + C751 + C752 + C753 + C754
   + C755 + C756 + C757 + C758 + C759 + C760 + C761 + C762 + C763 + C764
   + C765 + C766 + C767 + C768 + C769 + C770 + C771 + C772 + C773 + C774
   + C775 + C776 + C777 + C778 + C779 + C780 + C781 + C782 + C783 + C784
   + C785 + C786 + C787 + C788 + C789 + C790 + C791 + C792 + C793 + C794
   + C795 + C796 + C797 + C798 + C799 + C800 + C801 + C802 + C803 + C804
   + C805 + C806 + C807 + C808 + C809 + C810 + C811 + C812 + C813 + C814
   + C815 + C816 + C817 + C818 + C819 + C820 + C821 + C822 + C823 + C824
   + C825 + C826 + C827 + C828 + C829 + C830 + C831 + C832 + C833 + C834
   + C835 + C836 + C837 + C838 + C839 + C840 + C841 + C842 + C843
Subject To
 R0: C39 = 1
 R1: C54 = 1
 R2: C69 = 1
 R3: C84 = 1
 R4: C99 = 1
 R5: C114 = 1
 R6: C129 = 1
 R7: C144 = 1
 R8: C159 = 1
 R9: C174 = 1
 R10: C189 = 1
 R11: C204 = 1
 R12: C219 = 1
 R13: C234 = 1
 R14: C249 = 1
 R15: C264 = 1
 R16: C279 = 1
 R17: C294 = 1
 R18: C309 = 1
 R19: C324 = 1
 R20: C339 = 1
 R21: C354 = 1
 R22: C369 = 1
 R23: C384 = 1
 R24: C399 = 1
 R25: C414 = 1
 R26: C429 = 1
 R27: C444 = 1
 R28: C459 = 1
 R29: C474 = 1
 R30: C489 = 1
 R31: C504 = 1
 R32: C519 = 1
 R33: C534 = 1
 R34: C549 = 1
 R35: C39 - C40 - C41 = 0
 R36: C40 - C42 - C43 = 0
 R37: C41 - C44 - C45 = 0
 R38: C42 - C46 - C47 = 0
 R39: C43 - C48 - C49 = 0
 R40: C44 - C50 - C51 = 0
 R41: C45 - C52 - C53 = 0
 R42: C54 - C55 - C56 = 0
 R43: C55 - C57 - C58 = 0
 R44: C56 - C59 - C60 = 0
 R45: C57 - C61 - C62 = 0
 R46: C58 - C63 - C64 = 0
 R47: C59 - C65 - C66 = 0
 R48: C60 - C67 - C68 = 0
 R49: C69 - C70 - C71 = 0
 R50: C70 - C72 - C73 = 0
 R51: C71 - C74 - C75 = 0
 R52: C72 - C76 - C77 = 0
 R53: C73 - C78 - C79 = 0
 R54: C74 - C80 - C81 = 0
 R55: C75 - C82 - C83 = 0
 R56: C84 - C85 - C86 = 0
 R57: C85 - C87 - C88 = 0
 R58: C86 - C89 - C90 = 0
 R59: C87 - C91 - C92 = 0
 R60: C88 - C93 - C94 = 0
 R61: C89 - C95 - C96 = 0
 R62: C90 - C97 - C98 = 0
 R63: C99 - C100 - C101 = 0
 R64: C100 - C102 - C103 = 0
 R65: C101 - C104 - C105 = 0
 R66: C102 - C106 - C107 = 0
 R67: C103 - C108 - C109 = 0
 R68: C104 - C110 - C111 = 0
 R69: C105 - C112 - C113 = 0
 R70: C114 - C115 - C116 = 0
 R71: C115 - C117 - C118 = 0
 R72: C116 - C119 - C120 = 0
 R73: C117 - C121 - C122 = 0
 R74: C118 - C123 - C124 = 0
 R75: C119 - C125 - C126 = 0
 R76: C120 - C127 - C128 = 0
 R77: C129 - C130 - C131 = 0
 R78: C130 - C132 - C133 = 0
 R79: C131 - C134 - C135 = 0
 R80: C132 - C136 - C137 = 0
 R81: C133 - C138 - C139 = 0
 R82: C134 - C140 - C141 = 0
 R83: C135 - C142 - C143 = 0
 R84: C144 - C145 - C146 = 0
 R85: C145 - C147 - C148 = 0
 R86: C146 - C149 - C150 = 0
 R87: C147 - C151 - C152 = 0
 R88: C148 - C153 - C154 = 0
 R89: C149 - C155 - C156 = 0
 R90: C150 - C157 - C158 = 0
 R91: C159 - C160 - C161 = 0
 R92: C160 - C162 - C163 = 0
 R93: C161 - C164 - C165 = 0
 R94: C162 - C166 - C167 = 0
 R95: C163 - C168 - C169 = 0
 R96: C164 - C170 - C171 = 0
 R97: C165 - C172 - C173 = 0
 R98: C174 - C175 - C176 = 0
 R99: C175 - C177 - C178 = 0
 R100: C176 - C179 - C180 = 0
 R101: C177 - C181 - C182 = 0
 R102: C178 - C183 - C184 = 0
 R103: C179 - C185 - C186 = 0
 R104: C180 - C187 - C188 = 0
 R105: C189 - C190 - C191 = 0
 R106: C190 - C192 - C193 = 0
 R107: C191 - C194 - C195 = 0
 R108: C192 - C196 - C197 = 0
 R109: C193 - C198 - C199 = 0
 R110: C194 - C200 - C201 = 0
 R111: C195 - C202 - C203 = 0
 R112: C204 - C205 - C206 = 0
 R113: C205 - C207 - C208 = 0
 R114: C206 - C209 - C210 = 0
 R115: C207 - C211 - C212 = 0
 R116: C208 - C213 - C214 = 0
 R117: C209 - C215 - C216 = 0
 R118: C210 - C217 - C218 = 0
 R119: C219 - C220 - C221 = 0
 R120: C220 - C222 - C223 = 0
 R121: C221 - C224 - C225 = 0
 R122: C222 - C226 - C227 = 0
 R123: C223 - C228 - C229 = 0
 R124: C224 - C230 - C231 = 0
 R125: C225 - C232 - C233 = 0
 R126: C234 - C235 - C236 = 0
 R127: C235 - C237 - C238 = 0
 R128: C236 - C239 - C240 = 0
 R129: C237 - C241 - C242 = 0
 R130: C238 - C243 - C244 = 0
 R131: C239 - C245 - C246 = 0
 R132: C240 - C247 - C248 = 0
 R133: C249 - C250 - C251 = 0
 R134: C250 - C252 - C253 = 0
 R135: C251 - C254 - C255 = 0
 R136: C252 - C256 - C257 = 0
 R137: C253 - C258 - C259 = 0
 R138: C254 - C260 - C261 = 0
 R139: C255 - C262 - C263 = 0
 R140: C264 - C265 - C266 = 0
 R141: C265 - C267 - C268 = 0
 R142: C266 - C269 - C270 = 0
 R143: C267 - C271 - C272 = 0
 R144: C268 - C273 - C274 = 0
 R145: C269 - C275 - C276 = 0
 R146: C270 - C277 - C278 = 0
 R147: C279 - C280 - C281 = 0
 R148: C280 - C282 - C283 = 0
 R149: C281 - C284 - C285 = 0
 R150: C282 - C286 - C287 = 0
 R151: C283 - C288 - C289 = 0
 R152: C284 - C290 - C291 = 0
 R153: C285 - C292 - C293 = 0
 R154: C294 - C295 - C296 = 0
 R155: C295 - C297 - C298 = 0
 R156: C296 - C299 - C300 = 0
 R157: C297 - C301 - C302 = 0
 R158: C298 - C303 - C304 = 0
 R159: C299 - C305 - C306 = 0
 R160: C300 - C307 - C308 = 0
 R161: C309 - C310 - C311 = 0
 R162: C310 - C312 - C313 = 0
 R163: C311 - C314 - C315 = 0
 R164: C312 - C316 - C317 = 0
 R165: C313 - C318 - C319 = 0
 R166: C314 - C320 - C321 = 0
 R167: C315 - C322 - C323 = 0
 R168: C324 - C325 - C326 = 0
 R169: C325 - C327 - C328 = 0
 R170: C326 - C329 - C330 = 0
 R171: C327 - C331 - C332 = 0
 R172: C328 - C333 - C334 = 0
 R173: C329 - C335 - C336 = 0
 R174: C330 - C337 - C338 = 0
 R175: C339 - C340 - C341 = 0
 R176: C340 - C342 - C343 = 0
 R177: C341 - C344 - C345 = 0
 R178: C342 - C346 - C347 = 0
 R179: C343 - C348 - C349 = 0
 R180: C344 - C350 - C351 = 0
 R181: C345 - C352 - C353 = 0
 R182: C354 - C355 - C356 = 0
 R183: C355 - C357 - C358 = 0
 R184: C356 - C359 - C360 = 0
 R185: C357 - C361 - C362 = 0
 R186: C358 - C363 - C364 = 0
 R187: C359 - C365 - C366 = 0
 R188: C360 - C367 - C368 = 0
 R189: C369 - C370 - C371 = 0
 R190: C370 - C372 - C373 = 0
 R191: C371 - C374 - C375 = 0
 R192: C372 - C376 - C377 = 0
 R193: C373 - C378 - C379 = 0
 R194: C374 - C380 - C381 = 0
 R195: C375 - C382 - C383 = 0
 R196: C384 - C385 - C386 = 0
 R197: C385 - C387 - C388 = 0
 R198: C386 - C389 - C390 = 0
 R199: C387 - C391 - C392 = 0
 R200: C388 - C393 - C394 = 0
 R201: C389 - C395 - C396 = 0
 R202: C390 - C397 - C398 = 0
 R203: C399 - C400 - C401 = 0
 R204: C400 - C402 - C403 = 0
 R205: C401 - C404 - C405 = 0
 R206: C402 - C406 - C407 = 0
 R207: C403 - C408 - C409 = 0
 R208: C404 - C410 - C411 = 0
 R209: C405 - C412 - C413 = 0
 R210: C414 - C415 - C416 = 0
 R211: C415 - C417 - C418 = 0
 R212: C416 - C419 - C420 = 0
 R213: C417 - C421 - C422 = 0
 R214: C418 - C423 - C424 = 0
 R215: C419 - C425 - C426 = 0
 R216: C420 - C427 - C428 = 0
 R217: C429 - C430 - C431 = 0
 R218: C430 - C432 - C433 = 0
 R219: C431 - C434 - C435 = 0
 R220: C432 - C436 - C437 = 0
 R221: C433 - C438 - C439 = 0
 R222: C434 - C440 - C441 = 0
 R223: C435 - C442 - C443 = 0
 R224: C444 - C445 - C446 = 0
 R225: C445 - C447 - C448 = 0
 R226: C446 - C449 - C450 = 0
 R227: C447 - C451 - C452 = 0
 R228: C448 - C453 - C454 = 0
 R229: C449 - C455 - C456 = 0
 R230: C450 - C457 - C458 = 0
 R231: C459 - C460 - C461 = 0
 R232: C460 - C462 - C463 = 0
 R233: C461 - C464 - C465 = 0
 R234: C462 - C466 - C467 = 0
 R235: C463 - C468 - C469 = 0
 R236: C464 - C470 - C471 = 0
 R237: C465 - C472 - C473 = 0
 R238: C474 - C475 - C476 = 0
 R239: C475 - C477 - C478 = 0
 R240: C476 - C479 - C480 = 0
 R241: C477 - C481 - C482 = 0
 R242: C478 - C483 - C484 = 0
 R243: C479 - C485 - C486 = 0
 R244: C480 - C487 - C488 = 0
 R245: C489 - C490 - C491 = 0
 R246: C490 - C492 - C493 = 0
 R247: C491 - C494 - C495 = 0
 R248: C492 - C496 - C497 = 0
 R249: C493 - C498 - C499 = 0
 R250: C494 - C500 - C501 = 0
 R251: C495 - C502 - C503 = 0
 R252: C504 - C505 - C506 = 0
 R253: C505 - C507 - C508 = 0
 R254: C506 - C509 - C510 = 0
 R255: C507 - C511 - C512 = 0
 R256: C508 - C513 - C514 = 0
 R257: C509 - C515 - C516 = 0
 R258: C510 - C517 - C518 = 0
 R259: C519 - C520 - C521 = 0
 R260: C520 - C522 - C523 = 0
 R261: C521 - C524 - C525 = 0
 R262: C522 - C526 - C527 = 0
 R263: C523 - C528 - C529 = 0
 R264: C524 - C530 - C531 = 0
 R265: C525 - C532 - C533 = 0
 R266: C534 - C535 - C536 = 0
 R267: C535 - C537 - C538 = 0
 R268: C536 - C539 - C540 = 0
 R269: C537 - C541 - C542 = 0
 R270: C538 - C543 - C544 = 0
 R271: C539 - C545 - C546 = 0
 R272: C540 - C547 - C548 = 0
 R273: C549 - C550 - C551 = 0
 R274: C550 - C552 - C553 = 0
 R275: C551 - C554 - C555 = 0
 R276: C552 - C556 - C557 = 0
 R277: C553 - C558 - C559 = 0
 R278: C554 - C560 - C561 = 0
 R279: C555 - C562 - C563 = 0
 R280: C32 - C41 >= 0
 R281: C33 - C43 >= 0
 R282: C34 - C45 >= 0
 R283: C35 - C47 >= 0
 R284: C36 - C49 >= 0
 R285: C37 - C51 >= 0
 R286: C38 - C53 >= 0
 R287: C32 - C56 >= 0
 R288: C33 - C58 >= 0
 R289: C34 - C60 >= 0
 R290: C35 - C62 >= 0
 R291: C36 - C64 >= 0
 R292: C37 - C66 >= 0
 R293: C38 - C68 >= 0
 R294: C32 - C71 >= 0
 R295: C33 - C73 >= 0
 R296: C34 - C75 >= 0
 R297: C35 - C77 >= 0
 R298: C36 - C79 >= 0
 R299: C37 - C81 >= 0
 R300: C38 - C83 >= 0
 R301: C32 - C86 >= 0
 R302: C33 - C88 >= 0
 R303: C34 - C90 >= 0
 R304: C35 - C92 >= 0
 R305: C36 - C94 >= 0
 R306: C37 - C96 >= 0
 R307: C38 - C98 >= 0
 R308: C32 - C101 >= 0
 R309: C33 - C103 >= 0
 R310: C34 - C105 >= 0
 R311: C35 - C107 >= 0
 R312: C36 - C109 >= 0
 R313: C37 - C111 >= 0
 R314: C38 - C113 >= 0
 R315: C32 - C116 >= 0
 R316: C33 - C118 >= 0
 R317: C34 - C120 >= 0
 R318: C35 - C122 >= 0
 R319: C36 - C124 >= 0
 R320: C37 - C126 >= 0
 R321: C38 - C128 >= 0
 R322: C32 - C131 >= 0
 R323: C33 - C133 >= 0
 R324: C34 - C135 >= 0
 R325: C35 - C137 >= 0
 R326: C36 - C139 >= 0
 R327: C37 - C141 >= 0
 R328: C38 - C143 >= 0
 R329: C32 - C146 >= 0
 R330: C33 - C148 >= 0
 R331: C34 - C150 >= 0
 R332: C35 - C152 >= 0
 R333: C36 - C154 >= 0
 R334: C37 - C156 >= 0
 R335: C38 - C158 >= 0
 R336: C32 - C161 >= 0
 R337: C33 - C163 >= 0
 R338: C34 - C165 >= 0
 R339: C35 - C167 >= 0
 R340: C36 - C169 >= 0
 R341: C37 - C171 >= 0
 R342: C38 - C173 >= 0
 R343: C32 - C176 >= 0
 R344: C33 - C178 >= 0
 R345: C34 - C180 >= 0
 R346: C35 - C182 >= 0
 R347: C36 - C184 >= 0
 R348: C37 - C186 >= 0
 R349: C38 - C188 >= 0
 R350: C32 - C191 >= 0
 R351: C33 - C193 >= 0
 R352: C34 - C195 >= 0
 R353: C35 - C197 >= 0
 R354: C36 - C199 >= 0
 R355: C37 - C201 >= 0
 R356: C38 - C203 >= 0
 R357: C32 - C206 >= 0
 R358: C33 - C208 >= 0
 R359: C34 - C210 >= 0
 R360: C35 - C212 >= 0
 R361: C36 - C214 >= 0
 R362: C37 - C216 >= 0
 R363: C38 - C218 >= 0
 R364: C32 - C221 >= 0
 R365: C33 - C223 >= 0
 R366: C34 - C225 >= 0
 R367: C35 - C227 >= 0
 R368: C36 - C229 >= 0
 R369: C37 - C231 >= 0
 R370: C38 - C233 >= 0
 R371: C32 - C236 >= 0
 R372: C33 - C238 >= 0
 R373: C34 - C240 >= 0
 R374: C35 - C242 >= 0
 R375: C36 - C244 >= 0
 R376: C37 - C246 >= 0
 R377: C38 - C248 >= 0
 R378: C32 - C251 >= 0
 R379: C33 - C253 >= 0
 R380: C34 - C255 >= 0
 R381: C35 - C257 >= 0
 R382: C36 - C259 >= 0
 R383: C37 - C261 >= 0
 R384: C38 - C263 >= 0
 R385: C32 - C266 >= 0
 R386: C33 - C268 >= 0
 R387: C34 - C270 >= 0
 R388: C35 - C272 >= 0
 R389: C36 - C274 >= 0
 R390: C37 - C276 >= 0
 R391: C38 - C278 >= 0
 R392: C32 - C281 >= 0
 R393: C33 - C283 >= 0
 R394: C34 - C285 >= 0
 R395: C35 - C287 >= 0
 R396: C36 - C289 >= 0
 R397: C37 - C291 >= 0
 R398: C38 - C293 >= 0
 R399: C32 - C296 >= 0
 R400: C33 - C298 >= 0
 R401: C34 - C300 >= 0
 R402: C35 - C302 >= 0
 R403: C36 - C304 >= 0
 R404: C37 - C306 >= 0
 R405: C38 - C308 >= 0
 R406: C32 - C311 >= 0
 R407: C33 - C313 >= 0
 R408: C34 - C315 >= 0
 R409: C35 - C317 >= 0
 R410: C36 - C319 >= 0
 R411: C37 - C321 >= 0
 R412: C38 - C323 >= 0
 R413: C32 - C326 >= 0
 R414: C33 - C328 >= 0
 R415: C34 - C330 >= 0
 R416: C35 - C332 >= 0
 R417: C36 - C334 >= 0
 R418: C37 - C336 >= 0
 R419: C38 - C338 >= 0
 R420: C32 - C341 >= 0
 R421: C33 - C343 >= 0
 R422: C34 - C345 >= 0
 R423: C35 - C347 >= 0
 R424: C36 - C349 >= 0
 R425: C37 - C351 >= 0
 R426: C38 - C353 >= 0
 R427: C32 - C356 >= 0
 R428: C33 - C358 >= 0
 R429: C34 - C360 >= 0
 R430: C35 - C362 >= 0
 R431: C36 - C364 >= 0
 R432: C37 - C366 >= 0
 R433: C38 - C368 >= 0
 R434: C32 - C371 >= 0
 R435: C33 - C373 >= 0
 R436: C34 - C375 >= 0
 R437: C35 - C377 >= 0
 R438: C36 - C379 >= 0
 R439: C37 - C381 >= 0
 R440: C38 - C383 >= 0
 R441: C32 - C386 >= 0
 R442: C33 - C388 >= 0
 R443: C34 - C390 >= 0
 R444: C35 - C392 >= 0
 R445: C36 - C394 >= 0
 R446: C37 - C396 >= 0
 R447: C38 - C398 >= 0
 R448: C32 - C401 >= 0
 R449: C33 - C403 >= 0
 R450: C34 - C405 >= 0
 R451: C35 - C407 >= 0
 R452: C36 - C409 >= 0
 R453: C37 - C411 >= 0
 R454: C38 - C413 >= 0
 R455: C32 - C416 >= 0
 R456: C33 - C418 >= 0
 R457: C34 - C420 >= 0
 R458: C35 - C422 >= 0
 R459: C36 - C424 >= 0
 R460: C37 - C426 >= 0
 R461: C38 - C428 >= 0
 R462: C32 - C431 >= 0
 R463: C33 - C433 >= 0
 R464: C34 - C435 >= 0
 R465: C35 - C437 >= 0
 R466: C36 - C439 >= 0
 R467: C37 - C441 >= 0
 R468: C38 - C443 >= 0
 R469: C32 - C446 >= 0
 R470: C33 - C448 >= 0
 R471: C34 - C450 >= 0
 R472: C35 - C452 >= 0
 R473: C36 - C454 >= 0
 R474: C37 - C456 >= 0
 R475: C38 - C458 >= 0
 R476: C32 - C461 >= 0
 R477: C33 - C463 >= 0
 R478: C34 - C465 >= 0
 R479: C35 - C467 >= 0
 R480: C36 - C469 >= 0
 R481: C37 - C471 >= 0
 R482: C38 - C473 >= 0
 R483: C32 - C476 >= 0
 R484: C33 - C478 >= 0
 R485: C34 - C480 >= 0
 R486: C35 - C482 >= 0
 R487: C36 - C484 >= 0
 R488: C37 - C486 >= 0
 R489: C38 - C488 >= 0
 R490: C32 - C491 >= 0
 R491: C33 - C493 >= 0
 R492: C34 - C495 >= 0
 R493: C35 - C497 >= 0
 R494: C36 - C499 >= 0
 R495: C37 - C501 >= 0
 R496: C38 - C503 >= 0
 R497: C32 - C506 >= 0
 R498: C33 - C508 >= 0
 R499: C34 - C510 >= 0
 R500: C35 - C512 >= 0
 R501: C36 - C514 >= 0
 R502: C37 - C516 >= 0
 R503: C38 - C518 >= 0
 R504: C32 - C521 >= 0
 R505: C33 - C523 >= 0
 R506: C34 - C525 >= 0
 R507: C35 - C527 >= 0
 R508: C36 - C529 >= 0
 R509: C37 - C531 >= 0
 R510: C38 - C533 >= 0
 R511: C32 - C536 >= 0
 R512: C33 - C538 >= 0
 R513: C34 - C540 >= 0
 R514: C35 - C542 >= 0
 R515: C36 - C544 >= 0
 R516: C37 - C546 >= 0
 R517: C38 - C548 >= 0
 R518: C32 - C551 >= 0
 R519: C33 - C553 >= 0
 R520: C34 - C555 >= 0
 R521: C35 - C557 >= 0
 R522: C36 - C559 >= 0
 R523: C37 - C561 >= 0
 R524: C38 - C563 >= 0
 R525: C0 + C8 + C16 + C24 = 1
 R526: C1 + C9 + C17 + C25 = 1
 R527: C2 + C10 + C18 + C26 = 1
 R528: C3 + C11 + C19 + C27 = 1
 R529: C4 + C12 + C20 + C28 = 1
 R530: C5 + C13 + C21 + C29 = 1
 R531: C6 + C14 + C22 + C30 = 1
 R532: C7 + C15 + C23 + C31 = 1
 R533: - C46 + C564 <= 0
 R534: - C47 + C565 <= 0
 R535: - C48 + C566 <= 0
 R536: - C49 + C567 <= 0
 R537: - C50 + C568 <= 0
 R538: - C51 + C569 <= 0
 R539: - C52 + C570 <= 0
 R540: - C53 + C571 <= 0
 R541: - C61 + C572 <= 0
 R542: - C62 + C573 <= 0
 R543: - C63 + C574 <= 0
 R544: - C64 + C575 <= 0
 R545: - C65 + C576 <= 0
 R546: - C66 + C577 <= 0
 R547: - C67 + C578 <= 0
 R548: - C68 + C579 <= 0
 R549: - C76 + C580 <= 0
 R550: - C77 + C581 <= 0
 R551: - C78 + C582 <= 0
 R552: - C79 + C583 <= 0
 R553: - C80 + C584 <= 0
 R554: - C81 + C585 <= 0
 R555: - C82 + C586 <= 0
 R556: - C83 + C587 <= 0
 R557: - C91 + C588 <= 0
 R558: - C92 + C589 <= 0
 R559: - C93 + C590 <= 0
 R560: - C94 + C591 <= 0
 R561: - C95 + C592 <= 0
 R562: - C96 + C593 <= 0
 R563: - C97 + C594 <= 0
 R564: - C98 + C595 <= 0
 R565: - C106 + C596 <= 0
 R566: - C107 + C597 <= 0
 R567: - C108 + C598 <= 0
 R568: - C109 + C599 <= 0
 R569: - C110 + C600 <= 0
 R570: - C111 + C601 <= 0
 R571: - C112 + C602 <= 0
 R572: - C113 + C603 <= 0
 R573: - C121 + C604 <= 0
 R574: - C122 + C605 <= 0
 R575: - C123 + C606 <= 0
 R576: - C124 + C607 <= 0
 R577: - C125 + C608 <= 0
 R578: - C126 + C609 <= 0
 R579: - C127 + C610 <= 0
 R580: - C128 + C611 <= 0
 R581: - C136 + C612 <= 0
 R582: - C137 + C613 <= 0
 R583: - C138 + C614 <= 0
 R584: - C139 + C615 <= 0
 R585: - C140 + C616 <= 0
 R586: - C141 + C617 <= 0
 R587: - C142 + C618 <= 0
 R588: - C143 + C619 <= 0
 R589: - C151 + C620 <= 0
 R590: - C152 + C621 <= 0
 R591: - C153 + C622 <= 0
 R592: - C154 + C623 <= 0
 R593: - C155 + C624 <= 0
 R594: - C156 + C625 <= 0
 R595: - C157 + C626 <= 0
 R596: - C158 + C627 <= 0
 R597: - C166 + C628 <= 0
 R598: - C167 + C629 <= 0
 R599: - C168 + C630 <= 0
 R600: - C169 + C631 <= 0
 R601: - C170 + C632 <= 0
 R602: - C171 + C633 <= 0
 R603: - C172 + C634 <= 0
 R604: - C173 + C635 <= 0
 R605: - C181 + C636 <= 0
 R606: - C182 + C637 <= 0
 R607: - C183 + C638 <= 0
 R608: - C184 + C639 <= 0
 R609: - C185 + C640 <= 0
 R610: - C186 + C641 <= 0
 R611: - C187 + C642 <= 0
 R612: - C188 + C643 <= 0
 R613: - C196 + C644 <= 0
 R614: - C197 + C645 <= 0
 R615: - C198 + C646 <= 0
 R616: - C199 + C647 <= 0
 R617: - C200 + C648 <= 0
 R618: - C201 + C649 <= 0
 R619: - C202 + C650 <= 0
 R620: - C203 + C651 <= 0
 R621: - C211 + C652 <= 0
 R622: - C212 + C653 <= 0
 R623: - C213 + C654 <= 0
 R624: - C214 + C655 <= 0
 R625: - C215 + C656 <= 0
 R626: - C216 + C657 <= 0
 R627: - C217 + C658 <= 0
 R628: - C218 + C659 <= 0
 R629: - C226 + C660 <= 0
 R630: - C227 + C661 <= 0
 R631: - C228 + C662 <= 0
 R632: - C229 + C663 <= 0
 R633: - C230 + C664 <= 0
 R634: - C231 + C665 <= 0
 R635: - C232 + C666 <= 0
 R636: - C233 + C667 <= 0
 R637: - C241 + C668 <= 0
 R638: - C242 + C669 <= 0
 R639: - C243 + C670 <= 0
 R640: - C244 + C671 <= 0
 R641: - C245 + C672 <= 0
 R642: - C246 + C673 <= 0
 R643: - C247 + C674 <= 0
 R644: - C248 + C675 <= 0
 R645: - C256 + C676 <= 0
 R646: - C257 + C677 <= 0
 R647: - C258 + C678 <= 0
 R648: - C259 + C679 <= 0
 R649: - C260 + C680 <= 0
 R650: - C261 + C681 <= 0
 R651: - C262 + C682 <= 0
 R652: - C263 + C683 <= 0
 R653: - C271 + C684 <= 0
 R654: - C272 + C685 <= 0
 R655: - C273 + C686 <= 0
 R656: - C274 + C687 <= 0
 R657: - C275 + C688 <= 0
 R658: - C276 + C689 <= 0
 R659: - C277 + C690 <= 0
 R660: - C278 + C691 <= 0
 R661: - C286 + C692 <= 0
 R662: - C287 + C693 <= 0
 R663: - C288 + C694 <= 0
 R664: - C289 + C695 <= 0
 R665: - C290 + C696 <= 0
 R666: - C291 + C697 <= 0
 R667: - C292 + C698 <= 0
 R668: - C293 + C699 <= 0
 R669: - C301 + C700 <= 0
 R670: - C302 + C701 <= 0
 R671: - C303 + C702 <= 0
 R672: - C304 + C703 <= 0
 R673: - C305 + C704 <= 0
 R674: - C306 + C705 <= 0
 R675: - C307 + C706 <= 0
 R676: - C308 + C707 <= 0
 R677: - C316 + C708 <= 0
 R678: - C317 + C709 <= 0
 R679: - C318 + C710 <= 0
 R680: - C319 + C711 <= 0
 R681: - C320 + C712 <= 0
 R682: - C321 + C713 <= 0
 R683: - C322 + C714 <= 0
 R684: - C323 + C715 <= 0
 R685: - C331 + C716 <= 0
 R686: - C332 + C717 <= 0
 R687: - C333 + C718 <= 0
 R688: - C334 + C719 <= 0
 R689: - C335 + C720 <= 0
 R690: - C336 + C721 <= 0
 R691: - C337 + C722 <= 0
 R692: - C338 + C723 <= 0
 R693: - C346 + C724 <= 0
 R694: - C347 + C725 <= 0
 R695: - C348 + C726 <= 0
 R696: - C349 + C727 <= 0
 R697: - C350 + C728 <= 0
 R698: - C351 + C729 <= 0
 R699: - C352 + C730 <= 0
 R700: - C353 + C731 <= 0
 R701: - C361 + C732 <= 0
 R702: - C362 + C733 <= 0
 R703: - C363 + C734 <= 0
 R704: - C364 + C735 <= 0
 R705: - C365 + C736 <= 0
 R706: - C366 + C737 <= 0
 R707: - C367 + C738 <= 0
 R708: - C368 + C739 <= 0
 R709: - C376 + C740 <= 0
 R710: - C377 + C741 <= 0
 R711: - C378 + C742 <= 0
 R712: - C379 + C743 <= 0
 R713: - C380 + C744 <= 0
 R714: - C381 + C745 <= 0
 R715: - C382 + C746 <= 0
 R716: - C383 + C747 <= 0
 R717: - C391 + C748 <= 0
 R718: - C392 + C749 <= 0
 R719: - C393 + C750 <= 0
 R720: - C394 + C751 <= 0
 R721: - C395 + C752 <= 0
 R722: - C396 + C753 <= 0
 R723: - C397 + C754 <= 0
 R724: - C398 + C755 <= 0
 R725: - C406 + C756 <= 0
 R726: - C407 + C757 <= 0
 R727: - C408 + C758 <= 0
 R728: - C409 + C759 <= 0
 R729: - C410 + C760 <= 0
 R730: - C411 + C761 <= 0
 R731: - C412 + C762 <= 0
 R732: - C413 + C763 <= 0
 R733: - C421 + C764 <= 0
 R734: - C422 + C765 <= 0
 R735: - C423 + C766 <= 0
 R736: - C424 + C767 <= 0
 R737: - C425 + C768 <= 0
 R738: - C426 + C769 <= 0
 R739: - C427 + C770 <= 0
 R740: - C428 + C771 <= 0
 R741: - C436 + C772 <= 0
 R742: - C437 + C773 <= 0
 R743: - C438 + C774 <= 0
 R744: - C439 + C775 <= 0
 R745: - C440 + C776 <= 0
 R746: - C441 + C777 <= 0
 R747: - C442 + C778 <= 0
 R748: - C443 + C779 <= 0
 R749: - C451 + C780 <= 0
 R750: - C452 + C781 <= 0
 R751: - C453 + C782 <= 0
 R752: - C454 + C783 <= 0
 R753: - C455 + C784 <= 0
 R754: - C456 + C785 <= 0
 R755: - C457 + C786 <= 0
 R756: - C458 + C787 <= 0
 R757: - C466 + C788 <= 0
 R758: - C467 + C789 <= 0
 R759: - C468 + C790 <= 0
 R760: - C469 + C791 <= 0
 R761: - C470 + C792 <= 0
 R762: - C471 + C793 <= 0
 R763: - C472 + C794 <= 0
 R764: - C473 + C795 <= 0
 R765: - C481 + C796 <= 0
 R766: - C482 + C797 <= 0
 R767: - C483 + C798 <= 0
 R768: - C484 + C799 <= 0
 R769: - C485 + C800 <= 0
 R770: - C486 + C801 <= 0
 R771: - C487 + C802 <= 0
 R772: - C488 + C803 <= 0
 R773: - C496 + C804 <= 0
 R774: - C497 + C805 <= 0
 R775: - C498 + C806 <= 0
 R776: - C499 + C807 <= 0
 R777: - C500 + C808 <= 0
 R778: - C501 + C809 <= 0
 R779: - C502 + C810 <= 0
 R780: - C503 + C811 <= 0
 R781: - C511 + C812 <= 0
 R782: - C512 + C813 <= 0
 R783: - C513 + C814 <= 0
 R784: - C514 + C815 <= 0
 R785: - C515 + C816 <= 0
 R786: - C516 + C817 <= 0
 R787: - C517 + C818 <= 0
 R788: - C518 + C819 <= 0
 R789: - C526 + C820 <= 0
 R790: - C527 + C821 <= 0
 R791: - C528 + C822 <= 0
 R792: - C529 + C823 <= 0
 R793: - C530 + C824 <= 0
 R794: - C531 + C825 <= 0
 R795: - C532 + C826 <= 0
 R796: - C533 + C827 <= 0
 R797: - C541 + C828 <= 0
 R798: - C542 + C829 <= 0
 R799: - C543 + C830 <= 0
 R800: - C544 + C831 <= 0
 R801: - C545 + C832 <= 0
 R802: - C546 + C833 <= 0
 R803: - C547 + C834 <= 0
 R804: - C548 + C835 <= 0
 R805: - C556 + C836 <= 0
 R806: - C557 + C837 <= 0
 R807: - C558 + C838 <= 0
 R808: - C559 + C839 <= 0
 R809: - C560 + C840 <= 0
 R810: - C561 + C841 <= 0
 R811: - C562 + C842 <= 0
 R812: - C563 + C843 <= 0
 R813: - C24 + C564 <= 0
 R814: - C25 + C565 <= 0
 R815: - C26 + C566 <= 0
 R816: - C27 + C567 <= 0
 R817: - C28 + C568 <= 0
 R818: - C29 + C569 <= 0
 R819: - C30 + C570 <= 0
 R820: - C31 + C571 <= 0
 R821: - C0 + C572 <= 0
 R822: - C1 + C573 <= 0
 R823: - C2 + C574 <= 0
 R824: - C3 + C575 <= 0
 R825: - C4 + C576 <= 0
 R826: - C5 + C577 <= 0
 R827: - C6 + C578 <= 0
 R828: - C7 + C579 <= 0
 R829: - C24 + C580 <= 0
 R830: - C25 + C581 <= 0
 R831: - C26 + C582 <= 0
 R832: - C27 + C583 <= 0
 R833: - C28 + C584 <= 0
 R834: - C29 + C585 <= 0
 R835: - C30 + C586 <= 0
 R836: - C31 + C587 <= 0
 R837: - C16 + C588 <= 0
 R838: - C17 + C589 <= 0
 R839: - C18 + C590 <= 0
 R840: - C19 + C591 <= 0
 R841: - C20 + C592 <= 0
 R842: - C21 + C593 <= 0
 R843: - C22 + C594 <= 0
 R844: - C23 + C595 <= 0
 R845: - C0 + C596 <= 0
 R846: - C1 + C597 <= 0
 R847: - C2 + C598 <= 0
 R848: - C3 + C599 <= 0
 R849: - C4 + C600 <= 0
 R850: - C5 + C601 <= 0
 R851: - C6 + C602 <= 0
 R852: - C7 + C603 <= 0
 R853: - C0 + C604 <= 0
 R854: - C1 + C605 <= 0
 R855: - C2 + C606 <= 0
 R856: - C3 + C607 <= 0
 R857: - C4 + C608 <= 0
 R858: - C5 + C609 <= 0
 R859: - C6 + C610 <= 0
 R860: - C7 + C611 <= 0
 R861: - C0 + C612 <= 0
 R862: - C1 + C613 <= 0
 R863: - C2 + C614 <= 0
 R864: - C3 + C615 <= 0
 R865: - C4 + C616 <= 0
 R866: - C5 + C617 <= 0
 R867: - C6 + C618 <= 0
 R868: - C7 + C619 <= 0
 R869: - C8 + C620 <= 0
 R870: - C9 + C621 <= 0
 R871: - C10 + C622 <= 0
 R872: - C11 + C623 <= 0
 R873: - C12 + C624 <= 0
 R874: - C13 + C625 <= 0
 R875: - C14 + C626 <= 0
 R876: - C15 + C627 <= 0
 R877: - C8 + C628 <= 0
 R878: - C9 + C629 <= 0
 R879: - C10 + C630 <= 0
 R880: - C11 + C631 <= 0
 R881: - C12 + C632 <= 0
 R882: - C13 + C633 <= 0
 R883: - C14 + C634 <= 0
 R884: - C15 + C635 <= 0
 R885: - C8 + C636 <= 0
 R886: - C9 + C637 <= 0
 R887: - C10 + C638 <= 0
 R888: - C11 + C639 <= 0
 R889: - C12 + C640 <= 0
 R890: - C13 + C641 <= 0
 R891: - C14 + C642 <= 0
 R892: - C15 + C643 <= 0
 R893: - C0 + C644 <= 0
 R894: - C1 + C645 <= 0
 R895: - C2 + C646 <= 0
 R896: - C3 + C647 <= 0
 R897: - C4 + C648 <= 0
 R898: - C5 + C649 <= 0
 R899: - C6 + C650 <= 0
 R900: - C7 + C651 <= 0
 R901: - C16 + C652 <= 0
 R902: - C17 + C653 <= 0
 R903: - C18 + C654 <= 0
 R904: - C19 + C655 <= 0
 R905: - C20 + C656 <= 0
 R906: - C21 + C657 <= 0
 R907: - C22 + C658 <= 0
 R908: - C23 + C659 <= 0
 R909: - C24 + C660 <= 0
 R910: - C25 + C661 <= 0
 R911: - C26 + C662 <= 0
 R912: - C27 + C663 <= 0
 R913: - C28 + C664 <= 0
 R914: - C29 + C665 <= 0
 R915: - C30 + C666 <= 0
 R916: - C31 + C667 <= 0
 R917: - C16 + C668 <= 0
 R918: - C17 + C669 <= 0
 R919: - C18 + C670 <= 0
 R920: - C19 + C671 <= 0
 R921: - C20 + C672 <= 0
 R922: - C21 + C673 <= 0
 R923: - C22 + C674 <= 0
 R924: - C23 + C675 <= 0
 R925: - C24 + C676 <= 0
 R926: - C25 + C677 <= 0
 R927: - C26 + C678 <= 0
 R928: - C27 + C679 <= 0
 R929: - C28 + C680 <= 0
 R930: - C29 + C681 <= 0
 R931: - C30 + C682 <= 0
 R932: - C31 + C683 <= 0
 R933: - C16 + C684 <= 0
 R934: - C17 + C685 <= 0
 R935: - C18 + C686 <= 0
 R936: - C19 + C687 <= 0
 R937: - C20 + C688 <= 0
 R938: - C21 + C689 <= 0
 R939: - C22 + C690 <= 0
 R940: - C23 + C691 <= 0
 R941: - C0 + C692 <= 0
 R942: - C1 + C693 <= 0
 R943: - C2 + C694 <= 0
 R944: - C3 + C695 <= 0
 R945: - C4 + C696 <= 0
 R946: - C5 + C697 <= 0
 R947: - C6 + C698 <= 0
 R948: - C7 + C699 <= 0
 R949: - C24 + C700 <= 0
 R950: - C25 + C701 <= 0
 R951: - C26 + C702 <= 0
 R952: - C27 + C703 <= 0
 R953: - C28 + C704 <= 0
 R954: - C29 + C705 <= 0
 R955: - C30 + C706 <= 0
 R956: - C31 + C707 <= 0
 R957: - C0 + C708 <= 0
 R958: - C1 + C709 <= 0
 R959: - C2 + C710 <= 0
 R960: - C3 + C711 <= 0
 R961: - C4 + C712 <= 0
 R962: - C5 + C713 <= 0
 R963: - C6 + C714 <= 0
 R964: - C7 + C715 <= 0
 R965: - C16 + C716 <= 0
 R966: - C17 + C717 <= 0
 R967: - C18 + C718 <= 0
 R968: - C19 + C719 <= 0
 R969: - C20 + C720 <= 0
 R970: - C21 + C721 <= 0
 R971: - C22 + C722 <= 0
 R972: - C23 + C723 <= 0
 R973: - C24 + C724 <= 0
 R974: - C25 + C725 <= 0
 R975: - C26 + C726 <= 0
 R976: - C27 + C727 <= 0
 R977: - C28 + C728 <= 0
 R978: - C29 + C729 <= 0
 R979: - C30 + C730 <= 0
 R980: - C31 + C731 <= 0
 R981: - C0 + C732 <= 0
 R982: - C1 + C733 <= 0
 R983: - C2 + C734 <= 0
 R984: - C3 + C735 <= 0
 R985: - C4 + C736 <= 0
 R986: - C5 + C737 <= 0
 R987: - C6 + C738 <= 0
 R988: - C7 + C739 <= 0
 R989: - C24 + C740 <= 0
 R990: - C25 + C741 <= 0
 R991: - C26 + C742 <= 0
 R992: - C27 + C743 <= 0
 R993: - C28 + C744 <= 0
 R994: - C29 + C745 <= 0
 R995: - C30 + C746 <= 0
 R996: - C31 + C747 <= 0
 R997: - C24 + C748 <= 0
 R998: - C25 + C749 <= 0
 R999: - C26 + C750 <= 0
 R1000: - C27 + C751 <= 0
 R1001: - C28 + C752 <= 0
 R1002: - C29 + C753 <= 0
 R1003: - C30 + C754 <= 0
 R1004: - C31 + C755 <= 0
 R1005: - C16 + C756 <= 0
 R1006: - C17 + C757 <= 0
 R1007: - C18 + C758 <= 0
 R1008: - C19 + C759 <= 0
 R1009: - C20 + C760 <= 0
 R1010: - C21 + C761 <= 0
 R1011: - C22 + C762 <= 0
 R1012: - C23 + C763 <= 0
 R1013: - C24 + C764 <= 0
 R1014: - C25 + C765 <= 0
 R1015: - C26 + C766 <= 0
 R1016: - C27 + C767 <= 0
 R1017: - C28 + C768 <= 0
 R1018: - C29 + C769 <= 0
 R1019: - C30 + C770 <= 0
 R1020: - C31 + C771 <= 0
 R1021: - C24 + C772 <= 0
 R1022: - C25 + C773 <= 0
 R1023: - C26 + C774 <= 0
 R1024: - C27 + C775 <= 0
 R1025: - C28 + C776 <= 0
 R1026: - C29 + C777 <= 0
 R1027: - C30 + C778 <= 0
 R1028: - C31 + C779 <= 0
 R1029: - C16 + C780 <= 0
 R1030: - C17 + C781 <= 0
 R1031: - C18 + C782 <= 0
 R1032: - C19 + C783 <= 0
 R1033: - C20 + C784 <= 0
 R1034: - C21 + C785 <= 0
 R1035: - C22 + C786 <= 0
 R1036: - C23 + C787 <= 0
 R1037: - C8 + C788 <= 0
 R1038: - C9 + C789 <= 0
 R1039: - C10 + C790 <= 0
 R1040: - C11 + C791 <= 0
 R1041: - C12 + C792 <= 0
 R1042: - C13 + C793 <= 0
 R1043: - C14 + C794 <= 0
 R1044: - C15 + C795 <= 0
 R1045: - C24 + C796 <= 0
 R1046: - C25 + C797 <= 0
 R1047: - C26 + C798 <= 0
 R1048: - C27 + C799 <= 0
 R1049: - C28 + C800 <= 0
 R1050: - C29 + C801 <= 0
 R1051: - C30 + C802 <= 0
 R1052: - C31 + C803 <= 0
 R1053: - C24 + C804 <= 0
 R1054: - C25 + C805 <= 0
 R1055: - C26 + C806 <= 0
 R1056: - C27 + C807 <= 0
 R1057: - C28 + C808 <= 0
 R1058: - C29 + C809 <= 0
 R1059: - C30 + C810 <= 0
 R1060: - C31 + C811 <= 0
 R1061: - C24 + C812 <= 0
 R1062: - C25 + C813 <= 0
 R1063: - C26 + C814 <= 0
 R1064: - C27 + C815 <= 0
 R1065: - C28 + C816 <= 0
 R1066: - C29 + C817 <= 0
 R1067: - C30 + C818 <= 0
 R1068: - C31 + C819 <= 0
 R1069: - C0 + C820 <= 0
 R1070: - C1 + C821 <= 0
 R1071: - C2 + C822 <= 0
 R1072: - C3 + C823 <= 0
 R1073: - C4 + C824 <= 0
 R1074: - C5 + C825 <= 0
 R1075: - C6 + C826 <= 0
 R1076: - C7 + C827 <= 0
 R1077: - C16 + C828 <= 0
 R1078: - C17 + C829 <= 0
 R1079: - C18 + C830 <= 0
 R1080: - C19 + C831 <= 0
 R1081: - C20 + C832 <= 0
 R1082: - C21 + C833 <= 0
 R1083: - C22 + C834 <= 0
 R1084: - C23 + C835 <= 0
 R1085: - C24 + C836 <= 0
 R1086: - C25 + C837 <= 0
 R1087: - C26 + C838 <= 0
 R1088: - C27 + C839 <= 0
 R1089: - C28 + C840 <= 0
 R1090: - C29 + C841 <= 0
 R1091: - C30 + C842 <= 0
 R1092: - C31 + C843 <= 0
Bounds
 C0 <= 1
 C1 <= 1
 C2 <= 1
 C3 <= 1
 C4 <= 1
 C5 <= 1
 C6 <= 1
 C7 <= 1
 C8 <= 1
 C9 <= 1
 C10 <= 1
 C11 <= 1
 C12 <= 1
 C13 <= 1
 C14 <= 1
 C15 <= 1
 C16 <= 1
 C17 <= 1
 C18 <= 1
 C19 <= 1
 C20 <= 1
 C21 <= 1
 C22 <= 1
 C23 <= 1
 C24 <= 1
 C25 <= 1
 C26 <= 1
 C27 <= 1
 C28 <= 1
 C29 <= 1
 C30 <= 1
 C31 <= 1
 C32 <= 1
 C33 <= 1
 C34 <= 1
 C35 <= 1
 C36 <= 1
 C37 <= 1
 C38 <= 1
 C39 <= 1
 C40 <= 1
 C41 <= 1
 C42 <= 1
 C43 <= 1
 C44 <= 1
 C45 <= 1
 C54 <= 1
 C55 <= 1
 C56 <= 1
 C57 <= 1
 C58 <= 1
 C59 <= 1
 C60 <= 1
 C69 <= 1
 C70 <= 1
 C71 <= 1
 C72 <= 1
 C73 <= 1
 C74 <= 1
 C75 <= 1
 C84 <= 1
 C85 <= 1
 C86 <= 1
 C87 <= 1
 C88 <= 1
 C89 <= 1
 C90 <= 1
 C99 <= 1
 C100 <= 1
 C101 <= 1
 C102 <= 1
 C103 <= 1
 C104 <= 1
 C105 <= 1
 C114 <= 1
 C115 <= 1
 C116 <= 1
 C117 <= 1
 C118 <= 1
 C119 <= 1
 C120 <= 1
 C129 <= 1
 C130 <= 1
 C131 <= 1
 C132 <= 1
 C133 <= 1
 C134 <= 1
 C135 <= 1
 C144 <= 1
 C145 <= 1
 C146 <= 1
 C147 <= 1
 C148 <= 1
 C149 <= 1
 C150 <= 1
 C159 <= 1
 C160 <= 1
 C161 <= 1
 C162 <= 1
 C163 <= 1
 C164 <= 1
 C165 <= 1
 C174 <= 1
 C175 <= 1
 C176 <= 1
 C177 <= 1
 C178 <= 1
 C179 <= 1
 C180 <= 1
 C189 <= 1
 C190 <= 1
 C191 <= 1
 C192 <= 1
 C193 <= 1
 C194 <= 1
 C195 <= 1
 C204 <= 1
 C205 <= 1
 C206 <= 1
 C207 <= 1
 C208 <= 1
 C209 <= 1
 C210 <= 1
 C219 <= 1
 C220 <= 1
 C221 <= 1
 C222 <= 1
 C223 <= 1
 C224 <= 1
 C225 <= 1
 C234 <= 1
 C235 <= 1
 C236 <= 1
 C237 <= 1
 C238 <= 1
 C239 <= 1
 C240 <= 1
 C249 <= 1
 C250 <= 1
 C251 <= 1
 C252 <= 1
 C253 <= 1
 C254 <= 1
 C255 <= 1
 C264 <= 1
 C265 <= 1
 C266 <= 1
 C267 <= 1
 C268 <= 1
 C269 <= 1
 C270 <= 1
 C279 <= 1
 C280 <= 1
 C281 <= 1
 C282 <= 1
 C283 <= 1
 C284 <= 1
 C285 <= 1
 C294 <= 1
 C295 <= 1
 C296 <= 1
 C297 <= 1
 C298 <= 1
 C299 <= 1
 C300 <= 1
 C309 <= 1
 C310 <= 1
 C311 <= 1
 C312 <= 1
 C313 <= 1
 C314 <= 1
 C315 <= 1
 C324 <= 1
 C325 <= 1
 C326 <= 1
 C327 <= 1
 C328 <= 1
 C329 <= 1
 C330 <= 1
 C339 <= 1
 C340 <= 1
 C341 <= 1
 C342 <= 1
 C343 <= 1
 C344 <= 1
 C345 <= 1
 C354 <= 1
 C355 <= 1
 C356 <= 1
 C357 <= 1
 C358 <= 1
 C359 <= 1
 C360 <= 1
 C369 <= 1
 C370 <= 1
 C371 <= 1
 C372 <= 1
 C373 <= 1
 C374 <= 1
 C375 <= 1
 C384 <= 1
 C385 <= 1
 C386 <= 1
 C387 <= 1
 C388 <= 1
 C389 <= 1
 C390 <= 1
 C399 <= 1
 C400 <= 1
 C401 <= 1
 C402 <= 1
 C403 <= 1
 C404 <= 1
 C405 <= 1
 C414 <= 1
 C415 <= 1
 C416 <= 1
 C417 <= 1
 C418 <= 1
 C419 <= 1
 C420 <= 1
 C429 <= 1
 C430 <= 1
 C431 <= 1
 C432 <= 1
 C433 <= 1
 C434 <= 1
 C435 <= 1
 C444 <= 1
 C445 <= 1
 C446 <= 1
 C447 <= 1
 C448 <= 1
 C449 <= 1
 C450 <= 1
 C459 <= 1
 C460 <= 1
 C461 <= 1
 C462 <= 1
 C463 <= 1
 C464 <= 1
 C465 <= 1
 C474 <= 1
 C475 <= 1
 C476 <= 1
 C477 <= 1
 C478 <= 1
 C479 <= 1
 C480 <= 1
 C489 <= 1
 C490 <= 1
 C491 <= 1
 C492 <= 1
 C493 <= 1
 C494 <= 1
 C495 <= 1
 C504 <= 1
 C505 <= 1
 C506 <= 1
 C507 <= 1
 C508 <= 1
 C509 <= 1
 C510 <= 1
 C519 <= 1
 C520 <= 1
 C521 <= 1
 C522 <= 1
 C523 <= 1
 C524 <= 1
 C525 <= 1
 C534 <= 1
 C535 <= 1
 C536 <= 1
 C537 <= 1
 C538 <= 1
 C539 <= 1
 C540 <= 1
 C549 <= 1
 C550 <= 1
 C551 <= 1
 C552 <= 1
 C553 <= 1
 C554 <= 1
 C555 <= 1
 C564 <= 1
 C565 <= 1
 C566 <= 1
 C567 <= 1
 C568 <= 1
 C569 <= 1
 C570 <= 1
 C571 <= 1
 C572 <= 1
 C573 <= 1
 C574 <= 1
 C575 <= 1
 C576 <= 1
 C577 <= 1
 C578 <= 1
 C579 <= 1
 C580 <= 1
 C581 <= 1
 C582 <= 1
 C583 <= 1
 C584 <= 1
 C585 <= 1
 C586 <= 1
 C587 <= 1
 C588 <= 1
 C589 <= 1
 C590 <= 1
 C591 <= 1
 C592 <= 1
 C593 <= 1
 C594 <= 1
 C595 <= 1
 C596 <= 1
 C597 <= 1
 C598 <= 1
 C599 <= 1
 C600 <= 1
 C601 <= 1
 C602 <= 1
 C603 <= 1
 C604 <= 1
 C605 <= 1
 C606 <= 1
 C607 <= 1
 C608 <= 1
 C609 <= 1
 C610 <= 1
 C611 <= 1
 C612 <= 1
 C613 <= 1
 C614 <= 1
 C615 <= 1
 C616 <= 1
 C617 <= 1
 C618 <= 1
 C619 <= 1
 C620 <= 1
 C621 <= 1
 C622 <= 1
 C623 <= 1
 C624 <= 1
 C625 <= 1
 C626 <= 1
 C627 <= 1
 C628 <= 1
 C629 <= 1
 C630 <= 1
 C631 <= 1
 C632 <= 1
 C633 <= 1
 C634 <= 1
 C635 <= 1
 C636 <= 1
 C637 <= 1
 C638 <= 1
 C639 <= 1
 C640 <= 1
 C641 <= 1
 C642 <= 1
 C643 <= 1
 C644 <= 1
 C645 <= 1
 C646 <= 1
 C647 <= 1
 C648 <= 1
 C649 <= 1
 C650 <= 1
 C651 <= 1
 C652 <= 1
 C653 <= 1
 C654 <= 1
 C655 <= 1
 C656 <= 1
 C657 <= 1
 C658 <= 1
 C659 <= 1
 C660 <= 1
 C661 <= 1
 C662 <= 1
 C663 <= 1
 C664 <= 1
 C665 <= 1
 C666 <= 1
 C667 <= 1
 C668 <= 1
 C669 <= 1
 C670 <= 1
 C671 <= 1
 C672 <= 1
 C673 <= 1
 C674 <= 1
 C675 <= 1
 C676 <= 1
 C677 <= 1
 C678 <= 1
 C679 <= 1
 C680 <= 1
 C681 <= 1
 C682 <= 1
 C683 <= 1
 C684 <= 1
 C685 <= 1
 C686 <= 1
 C687 <= 1
 C688 <= 1
 C689 <= 1
 C690 <= 1
 C691 <= 1
 C692 <= 1
 C693 <= 1
 C694 <= 1
 C695 <= 1
 C696 <= 1
 C697 <= 1
 C698 <= 1
 C699 <= 1
 C700 <= 1
 C701 <= 1
 C702 <= 1
 C703 <= 1
 C704 <= 1
 C705 <= 1
 C706 <= 1
 C707 <= 1
 C708 <= 1
 C709 <= 1
 C710 <= 1
 C711 <= 1
 C712 <= 1
 C713 <= 1
 C714 <= 1
 C715 <= 1
 C716 <= 1
 C717 <= 1
 C718 <= 1
 C719 <= 1
 C720 <= 1
 C721 <= 1
 C722 <= 1
 C723 <= 1
 C724 <= 1
 C725 <= 1
 C726 <= 1
 C727 <= 1
 C728 <= 1
 C729 <= 1
 C730 <= 1
 C731 <= 1
 C732 <= 1
 C733 <= 1
 C734 <= 1
 C735 <= 1
 C736 <= 1
 C737 <= 1
 C738 <= 1
 C739 <= 1
 C740 <= 1
 C741 <= 1
 C742 <= 1
 C743 <= 1
 C744 <= 1
 C745 <= 1
 C746 <= 1
 C747 <= 1
 C748 <= 1
 C749 <= 1
 C750 <= 1
 C751 <= 1
 C752 <= 1
 C753 <= 1
 C754 <= 1
 C755 <= 1
 C756 <= 1
 C757 <= 1
 C758 <= 1
 C759 <= 1
 C760 <= 1
 C761 <= 1
 C762 <= 1
 C763 <= 1
 C764 <= 1
 C765 <= 1
 C766 <= 1
 C767 <= 1
 C768 <= 1
 C769 <= 1
 C770 <= 1
 C771 <= 1
 C772 <= 1
 C773 <= 1
 C774 <= 1
 C775 <= 1
 C776 <= 1
 C777 <= 1
 C778 <= 1
 C779 <= 1
 C780 <= 1
 C781 <= 1
 C782 <= 1
 C783 <= 1
 C784 <= 1
 C785 <= 1
 C786 <= 1
 C787 <= 1
 C788 <= 1
 C789 <= 1
 C790 <= 1
 C791 <= 1
 C792 <= 1
 C793 <= 1
 C794 <= 1
 C795 <= 1
 C796 <= 1
 C797 <= 1
 C798 <= 1
 C799 <= 1
 C800 <= 1
 C801 <= 1
 C802 <= 1
 C803 <= 1
 C804 <= 1
 C805 <= 1
 C806 <= 1
 C807 <= 1
 C808 <= 1
 C809 <= 1
 C810 <= 1
 C811 <= 1
 C812 <= 1
 C813 <= 1
 C814 <= 1
 C815 <= 1
 C816 <= 1
 C817 <= 1
 C818 <= 1
 C819 <= 1
 C820 <= 1
 C821 <= 1
 C822 <= 1
 C823 <= 1
 C824 <= 1
 C825 <= 1
 C826 <= 1
 C827 <= 1
 C828 <= 1
 C829 <= 1
 C830 <= 1
 C831 <= 1
 C832 <= 1
 C833 <= 1
 C834 <= 1
 C835 <= 1
 C836 <= 1
 C837 <= 1
 C838 <= 1
 C839 <= 1
 C840 <= 1
 C841 <= 1
 C842 <= 1
 C843 <= 1
Binaries
 C46 C47 C48 C49 C50 C51 C52 C53 C61 C62 C63 C64 C65 C66 C67 C68 C76 C77
 C78 C79 C80 C81 C82 C83 C91 C92 C93 C94 C95 C96 C97 C98 C106 C107 C108
 C109 C110 C111 C112 C113 C121 C122 C123 C124 C125 C126 C127 C128 C136 C137
 C138 C139 C140 C141 C142 C143 C151 C152 C153 C154 C155 C156 C157 C158 C166
 C167 C168 C169 C170 C171 C172 C173 C181 C182 C183 C184 C185 C186 C187 C188
 C196 C197 C198 C199 C200 C201 C202 C203 C211 C212 C213 C214 C215 C216 C217
 C218 C226 C227 C228 C229 C230 C231 C232 C233 C241 C242 C243 C244 C245 C246
 C247 C248 C256 C257 C258 C259 C260 C261 C262 C263 C271 C272 C273 C274 C275
 C276 C277 C278 C286 C287 C288 C289 C290 C291 C292 C293 C301 C302 C303 C304
 C305 C306 C307 C308 C316 C317 C318 C319 C320 C321 C322 C323 C331 C332 C333
 C334 C335 C336 C337 C338 C346 C347 C348 C349 C350 C351 C352 C353 C361 C362
 C363 C364 C365 C366 C367 C368 C376 C377 C378 C379 C380 C381 C382 C383 C391
 C392 C393 C394 C395 C396 C397 C398 C406 C407 C408 C409 C410 C411 C412 C413
 C421 C422 C423 C424 C425 C426 C427 C428 C436 C437 C438 C439 C440 C441 C442
 C443 C451 C452 C453 C454 C455 C456 C457 C458 C466 C467 C468 C469 C470 C471
 C472 C473 C481 C482 C483 C484 C485 C486 C487 C488 C496 C497 C498 C499 C500
 C501 C502 C503 C511 C512 C513 C514 C515 C516 C517 C518 C526 C527 C528 C529
 C530 C531 C532 C533 C541 C542 C543 C544 C545 C546 C547 C548 C556 C557 C558
 C559 C560 C561 C562 C563
End
